c clasp version 2.1.1
c Reading from p19.cnf
c Solving...
s SATISFIABLE

c Models        : 1+    
c Time          : 7.404s (Solving: 6.63s 1st Model: 6.61s Unsat: 0.00s)
c CPU Time      : 7.380s
c Choices       : 61151
c Conflicts     : 31180
c Restarts      : 4      (Average: 7795.00 Last: 14440)

c Variables     : 223091 (Eliminated: 70075 Frozen:    0)
c Constraints   : 246547 (Binary: 65.4% Ternary: 33.0% Other:  1.6%)
c Lemmas        : 31180  (Binary:  0.0% Ternary:  0.1% Other: 99.9%)
c   Conflict    : 31180  (Average Length: 351.0) 
c   Loop        : 0      (Average Length: 0.0) 
c   Other       : 0      (Average Length: 0.0)
c   Deleted     : 13453 
